c *********************************
c * Circuit generated by BenCGen
c *
c * Parity_469
c *
c * Ports with 1 gate(s): 1
c * Ports with 2 gate(s): 469
c * Total gates: 470
c *********************************
p cnf 939 1877
1 472 0
-1 -472 0
1 -471 0
472 -471 0
-1 -472 471 0
1 2 -473 0
-1 2 473 0
1 -2 473 0
-1 -2 -473 0
3 4 -474 0
-3 4 474 0
3 -4 474 0
-3 -4 -474 0
5 6 -475 0
-5 6 475 0
5 -6 475 0
-5 -6 -475 0
7 8 -476 0
-7 8 476 0
7 -8 476 0
-7 -8 -476 0
9 10 -477 0
-9 10 477 0
9 -10 477 0
-9 -10 -477 0
11 12 -478 0
-11 12 478 0
11 -12 478 0
-11 -12 -478 0
13 14 -479 0
-13 14 479 0
13 -14 479 0
-13 -14 -479 0
15 16 -480 0
-15 16 480 0
15 -16 480 0
-15 -16 -480 0
17 18 -481 0
-17 18 481 0
17 -18 481 0
-17 -18 -481 0
19 20 -482 0
-19 20 482 0
19 -20 482 0
-19 -20 -482 0
21 22 -483 0
-21 22 483 0
21 -22 483 0
-21 -22 -483 0
23 24 -484 0
-23 24 484 0
23 -24 484 0
-23 -24 -484 0
25 26 -485 0
-25 26 485 0
25 -26 485 0
-25 -26 -485 0
27 28 -486 0
-27 28 486 0
27 -28 486 0
-27 -28 -486 0
29 30 -487 0
-29 30 487 0
29 -30 487 0
-29 -30 -487 0
31 32 -488 0
-31 32 488 0
31 -32 488 0
-31 -32 -488 0
33 34 -489 0
-33 34 489 0
33 -34 489 0
-33 -34 -489 0
35 36 -490 0
-35 36 490 0
35 -36 490 0
-35 -36 -490 0
37 38 -491 0
-37 38 491 0
37 -38 491 0
-37 -38 -491 0
39 40 -492 0
-39 40 492 0
39 -40 492 0
-39 -40 -492 0
41 42 -493 0
-41 42 493 0
41 -42 493 0
-41 -42 -493 0
43 44 -494 0
-43 44 494 0
43 -44 494 0
-43 -44 -494 0
45 46 -495 0
-45 46 495 0
45 -46 495 0
-45 -46 -495 0
47 48 -496 0
-47 48 496 0
47 -48 496 0
-47 -48 -496 0
49 50 -497 0
-49 50 497 0
49 -50 497 0
-49 -50 -497 0
51 52 -498 0
-51 52 498 0
51 -52 498 0
-51 -52 -498 0
53 54 -499 0
-53 54 499 0
53 -54 499 0
-53 -54 -499 0
55 56 -500 0
-55 56 500 0
55 -56 500 0
-55 -56 -500 0
57 58 -501 0
-57 58 501 0
57 -58 501 0
-57 -58 -501 0
59 60 -502 0
-59 60 502 0
59 -60 502 0
-59 -60 -502 0
61 62 -503 0
-61 62 503 0
61 -62 503 0
-61 -62 -503 0
63 64 -504 0
-63 64 504 0
63 -64 504 0
-63 -64 -504 0
65 66 -505 0
-65 66 505 0
65 -66 505 0
-65 -66 -505 0
67 68 -506 0
-67 68 506 0
67 -68 506 0
-67 -68 -506 0
69 70 -507 0
-69 70 507 0
69 -70 507 0
-69 -70 -507 0
71 72 -508 0
-71 72 508 0
71 -72 508 0
-71 -72 -508 0
73 74 -509 0
-73 74 509 0
73 -74 509 0
-73 -74 -509 0
75 76 -510 0
-75 76 510 0
75 -76 510 0
-75 -76 -510 0
77 78 -511 0
-77 78 511 0
77 -78 511 0
-77 -78 -511 0
79 80 -512 0
-79 80 512 0
79 -80 512 0
-79 -80 -512 0
81 82 -513 0
-81 82 513 0
81 -82 513 0
-81 -82 -513 0
83 84 -514 0
-83 84 514 0
83 -84 514 0
-83 -84 -514 0
85 86 -515 0
-85 86 515 0
85 -86 515 0
-85 -86 -515 0
87 88 -516 0
-87 88 516 0
87 -88 516 0
-87 -88 -516 0
89 90 -517 0
-89 90 517 0
89 -90 517 0
-89 -90 -517 0
91 92 -518 0
-91 92 518 0
91 -92 518 0
-91 -92 -518 0
93 94 -519 0
-93 94 519 0
93 -94 519 0
-93 -94 -519 0
95 96 -520 0
-95 96 520 0
95 -96 520 0
-95 -96 -520 0
97 98 -521 0
-97 98 521 0
97 -98 521 0
-97 -98 -521 0
99 100 -522 0
-99 100 522 0
99 -100 522 0
-99 -100 -522 0
101 102 -523 0
-101 102 523 0
101 -102 523 0
-101 -102 -523 0
103 104 -524 0
-103 104 524 0
103 -104 524 0
-103 -104 -524 0
105 106 -525 0
-105 106 525 0
105 -106 525 0
-105 -106 -525 0
107 108 -526 0
-107 108 526 0
107 -108 526 0
-107 -108 -526 0
109 110 -527 0
-109 110 527 0
109 -110 527 0
-109 -110 -527 0
111 112 -528 0
-111 112 528 0
111 -112 528 0
-111 -112 -528 0
113 114 -529 0
-113 114 529 0
113 -114 529 0
-113 -114 -529 0
115 116 -530 0
-115 116 530 0
115 -116 530 0
-115 -116 -530 0
117 118 -531 0
-117 118 531 0
117 -118 531 0
-117 -118 -531 0
119 120 -532 0
-119 120 532 0
119 -120 532 0
-119 -120 -532 0
121 122 -533 0
-121 122 533 0
121 -122 533 0
-121 -122 -533 0
123 124 -534 0
-123 124 534 0
123 -124 534 0
-123 -124 -534 0
125 126 -535 0
-125 126 535 0
125 -126 535 0
-125 -126 -535 0
127 128 -536 0
-127 128 536 0
127 -128 536 0
-127 -128 -536 0
129 130 -537 0
-129 130 537 0
129 -130 537 0
-129 -130 -537 0
131 132 -538 0
-131 132 538 0
131 -132 538 0
-131 -132 -538 0
133 134 -539 0
-133 134 539 0
133 -134 539 0
-133 -134 -539 0
135 136 -540 0
-135 136 540 0
135 -136 540 0
-135 -136 -540 0
137 138 -541 0
-137 138 541 0
137 -138 541 0
-137 -138 -541 0
139 140 -542 0
-139 140 542 0
139 -140 542 0
-139 -140 -542 0
141 142 -543 0
-141 142 543 0
141 -142 543 0
-141 -142 -543 0
143 144 -544 0
-143 144 544 0
143 -144 544 0
-143 -144 -544 0
145 146 -545 0
-145 146 545 0
145 -146 545 0
-145 -146 -545 0
147 148 -546 0
-147 148 546 0
147 -148 546 0
-147 -148 -546 0
149 150 -547 0
-149 150 547 0
149 -150 547 0
-149 -150 -547 0
151 152 -548 0
-151 152 548 0
151 -152 548 0
-151 -152 -548 0
153 154 -549 0
-153 154 549 0
153 -154 549 0
-153 -154 -549 0
155 156 -550 0
-155 156 550 0
155 -156 550 0
-155 -156 -550 0
157 158 -551 0
-157 158 551 0
157 -158 551 0
-157 -158 -551 0
159 160 -552 0
-159 160 552 0
159 -160 552 0
-159 -160 -552 0
161 162 -553 0
-161 162 553 0
161 -162 553 0
-161 -162 -553 0
163 164 -554 0
-163 164 554 0
163 -164 554 0
-163 -164 -554 0
165 166 -555 0
-165 166 555 0
165 -166 555 0
-165 -166 -555 0
167 168 -556 0
-167 168 556 0
167 -168 556 0
-167 -168 -556 0
169 170 -557 0
-169 170 557 0
169 -170 557 0
-169 -170 -557 0
171 172 -558 0
-171 172 558 0
171 -172 558 0
-171 -172 -558 0
173 174 -559 0
-173 174 559 0
173 -174 559 0
-173 -174 -559 0
175 176 -560 0
-175 176 560 0
175 -176 560 0
-175 -176 -560 0
177 178 -561 0
-177 178 561 0
177 -178 561 0
-177 -178 -561 0
179 180 -562 0
-179 180 562 0
179 -180 562 0
-179 -180 -562 0
181 182 -563 0
-181 182 563 0
181 -182 563 0
-181 -182 -563 0
183 184 -564 0
-183 184 564 0
183 -184 564 0
-183 -184 -564 0
185 186 -565 0
-185 186 565 0
185 -186 565 0
-185 -186 -565 0
187 188 -566 0
-187 188 566 0
187 -188 566 0
-187 -188 -566 0
189 190 -567 0
-189 190 567 0
189 -190 567 0
-189 -190 -567 0
191 192 -568 0
-191 192 568 0
191 -192 568 0
-191 -192 -568 0
193 194 -569 0
-193 194 569 0
193 -194 569 0
-193 -194 -569 0
195 196 -570 0
-195 196 570 0
195 -196 570 0
-195 -196 -570 0
197 198 -571 0
-197 198 571 0
197 -198 571 0
-197 -198 -571 0
199 200 -572 0
-199 200 572 0
199 -200 572 0
-199 -200 -572 0
201 202 -573 0
-201 202 573 0
201 -202 573 0
-201 -202 -573 0
203 204 -574 0
-203 204 574 0
203 -204 574 0
-203 -204 -574 0
205 206 -575 0
-205 206 575 0
205 -206 575 0
-205 -206 -575 0
207 208 -576 0
-207 208 576 0
207 -208 576 0
-207 -208 -576 0
209 210 -577 0
-209 210 577 0
209 -210 577 0
-209 -210 -577 0
211 212 -578 0
-211 212 578 0
211 -212 578 0
-211 -212 -578 0
213 214 -579 0
-213 214 579 0
213 -214 579 0
-213 -214 -579 0
215 216 -580 0
-215 216 580 0
215 -216 580 0
-215 -216 -580 0
217 218 -581 0
-217 218 581 0
217 -218 581 0
-217 -218 -581 0
219 220 -582 0
-219 220 582 0
219 -220 582 0
-219 -220 -582 0
221 222 -583 0
-221 222 583 0
221 -222 583 0
-221 -222 -583 0
223 224 -584 0
-223 224 584 0
223 -224 584 0
-223 -224 -584 0
225 226 -585 0
-225 226 585 0
225 -226 585 0
-225 -226 -585 0
227 228 -586 0
-227 228 586 0
227 -228 586 0
-227 -228 -586 0
229 230 -587 0
-229 230 587 0
229 -230 587 0
-229 -230 -587 0
231 232 -588 0
-231 232 588 0
231 -232 588 0
-231 -232 -588 0
233 234 -589 0
-233 234 589 0
233 -234 589 0
-233 -234 -589 0
235 236 -590 0
-235 236 590 0
235 -236 590 0
-235 -236 -590 0
237 238 -591 0
-237 238 591 0
237 -238 591 0
-237 -238 -591 0
239 240 -592 0
-239 240 592 0
239 -240 592 0
-239 -240 -592 0
241 242 -593 0
-241 242 593 0
241 -242 593 0
-241 -242 -593 0
243 244 -594 0
-243 244 594 0
243 -244 594 0
-243 -244 -594 0
245 246 -595 0
-245 246 595 0
245 -246 595 0
-245 -246 -595 0
247 248 -596 0
-247 248 596 0
247 -248 596 0
-247 -248 -596 0
249 250 -597 0
-249 250 597 0
249 -250 597 0
-249 -250 -597 0
251 252 -598 0
-251 252 598 0
251 -252 598 0
-251 -252 -598 0
253 254 -599 0
-253 254 599 0
253 -254 599 0
-253 -254 -599 0
255 256 -600 0
-255 256 600 0
255 -256 600 0
-255 -256 -600 0
257 258 -601 0
-257 258 601 0
257 -258 601 0
-257 -258 -601 0
259 260 -602 0
-259 260 602 0
259 -260 602 0
-259 -260 -602 0
261 262 -603 0
-261 262 603 0
261 -262 603 0
-261 -262 -603 0
263 264 -604 0
-263 264 604 0
263 -264 604 0
-263 -264 -604 0
265 266 -605 0
-265 266 605 0
265 -266 605 0
-265 -266 -605 0
267 268 -606 0
-267 268 606 0
267 -268 606 0
-267 -268 -606 0
269 270 -607 0
-269 270 607 0
269 -270 607 0
-269 -270 -607 0
271 272 -608 0
-271 272 608 0
271 -272 608 0
-271 -272 -608 0
273 274 -609 0
-273 274 609 0
273 -274 609 0
-273 -274 -609 0
275 276 -610 0
-275 276 610 0
275 -276 610 0
-275 -276 -610 0
277 278 -611 0
-277 278 611 0
277 -278 611 0
-277 -278 -611 0
279 280 -612 0
-279 280 612 0
279 -280 612 0
-279 -280 -612 0
281 282 -613 0
-281 282 613 0
281 -282 613 0
-281 -282 -613 0
283 284 -614 0
-283 284 614 0
283 -284 614 0
-283 -284 -614 0
285 286 -615 0
-285 286 615 0
285 -286 615 0
-285 -286 -615 0
287 288 -616 0
-287 288 616 0
287 -288 616 0
-287 -288 -616 0
289 290 -617 0
-289 290 617 0
289 -290 617 0
-289 -290 -617 0
291 292 -618 0
-291 292 618 0
291 -292 618 0
-291 -292 -618 0
293 294 -619 0
-293 294 619 0
293 -294 619 0
-293 -294 -619 0
295 296 -620 0
-295 296 620 0
295 -296 620 0
-295 -296 -620 0
297 298 -621 0
-297 298 621 0
297 -298 621 0
-297 -298 -621 0
299 300 -622 0
-299 300 622 0
299 -300 622 0
-299 -300 -622 0
301 302 -623 0
-301 302 623 0
301 -302 623 0
-301 -302 -623 0
303 304 -624 0
-303 304 624 0
303 -304 624 0
-303 -304 -624 0
305 306 -625 0
-305 306 625 0
305 -306 625 0
-305 -306 -625 0
307 308 -626 0
-307 308 626 0
307 -308 626 0
-307 -308 -626 0
309 310 -627 0
-309 310 627 0
309 -310 627 0
-309 -310 -627 0
311 312 -628 0
-311 312 628 0
311 -312 628 0
-311 -312 -628 0
313 314 -629 0
-313 314 629 0
313 -314 629 0
-313 -314 -629 0
315 316 -630 0
-315 316 630 0
315 -316 630 0
-315 -316 -630 0
317 318 -631 0
-317 318 631 0
317 -318 631 0
-317 -318 -631 0
319 320 -632 0
-319 320 632 0
319 -320 632 0
-319 -320 -632 0
321 322 -633 0
-321 322 633 0
321 -322 633 0
-321 -322 -633 0
323 324 -634 0
-323 324 634 0
323 -324 634 0
-323 -324 -634 0
325 326 -635 0
-325 326 635 0
325 -326 635 0
-325 -326 -635 0
327 328 -636 0
-327 328 636 0
327 -328 636 0
-327 -328 -636 0
329 330 -637 0
-329 330 637 0
329 -330 637 0
-329 -330 -637 0
331 332 -638 0
-331 332 638 0
331 -332 638 0
-331 -332 -638 0
333 334 -639 0
-333 334 639 0
333 -334 639 0
-333 -334 -639 0
335 336 -640 0
-335 336 640 0
335 -336 640 0
-335 -336 -640 0
337 338 -641 0
-337 338 641 0
337 -338 641 0
-337 -338 -641 0
339 340 -642 0
-339 340 642 0
339 -340 642 0
-339 -340 -642 0
341 342 -643 0
-341 342 643 0
341 -342 643 0
-341 -342 -643 0
343 344 -644 0
-343 344 644 0
343 -344 644 0
-343 -344 -644 0
345 346 -645 0
-345 346 645 0
345 -346 645 0
-345 -346 -645 0
347 348 -646 0
-347 348 646 0
347 -348 646 0
-347 -348 -646 0
349 350 -647 0
-349 350 647 0
349 -350 647 0
-349 -350 -647 0
351 352 -648 0
-351 352 648 0
351 -352 648 0
-351 -352 -648 0
353 354 -649 0
-353 354 649 0
353 -354 649 0
-353 -354 -649 0
355 356 -650 0
-355 356 650 0
355 -356 650 0
-355 -356 -650 0
357 358 -651 0
-357 358 651 0
357 -358 651 0
-357 -358 -651 0
359 360 -652 0
-359 360 652 0
359 -360 652 0
-359 -360 -652 0
361 362 -653 0
-361 362 653 0
361 -362 653 0
-361 -362 -653 0
363 364 -654 0
-363 364 654 0
363 -364 654 0
-363 -364 -654 0
365 366 -655 0
-365 366 655 0
365 -366 655 0
-365 -366 -655 0
367 368 -656 0
-367 368 656 0
367 -368 656 0
-367 -368 -656 0
369 370 -657 0
-369 370 657 0
369 -370 657 0
-369 -370 -657 0
371 372 -658 0
-371 372 658 0
371 -372 658 0
-371 -372 -658 0
373 374 -659 0
-373 374 659 0
373 -374 659 0
-373 -374 -659 0
375 376 -660 0
-375 376 660 0
375 -376 660 0
-375 -376 -660 0
377 378 -661 0
-377 378 661 0
377 -378 661 0
-377 -378 -661 0
379 380 -662 0
-379 380 662 0
379 -380 662 0
-379 -380 -662 0
381 382 -663 0
-381 382 663 0
381 -382 663 0
-381 -382 -663 0
383 384 -664 0
-383 384 664 0
383 -384 664 0
-383 -384 -664 0
385 386 -665 0
-385 386 665 0
385 -386 665 0
-385 -386 -665 0
387 388 -666 0
-387 388 666 0
387 -388 666 0
-387 -388 -666 0
389 390 -667 0
-389 390 667 0
389 -390 667 0
-389 -390 -667 0
391 392 -668 0
-391 392 668 0
391 -392 668 0
-391 -392 -668 0
393 394 -669 0
-393 394 669 0
393 -394 669 0
-393 -394 -669 0
395 396 -670 0
-395 396 670 0
395 -396 670 0
-395 -396 -670 0
397 398 -671 0
-397 398 671 0
397 -398 671 0
-397 -398 -671 0
399 400 -672 0
-399 400 672 0
399 -400 672 0
-399 -400 -672 0
401 402 -673 0
-401 402 673 0
401 -402 673 0
-401 -402 -673 0
403 404 -674 0
-403 404 674 0
403 -404 674 0
-403 -404 -674 0
405 406 -675 0
-405 406 675 0
405 -406 675 0
-405 -406 -675 0
407 408 -676 0
-407 408 676 0
407 -408 676 0
-407 -408 -676 0
409 410 -677 0
-409 410 677 0
409 -410 677 0
-409 -410 -677 0
411 412 -678 0
-411 412 678 0
411 -412 678 0
-411 -412 -678 0
413 414 -679 0
-413 414 679 0
413 -414 679 0
-413 -414 -679 0
415 416 -680 0
-415 416 680 0
415 -416 680 0
-415 -416 -680 0
417 418 -681 0
-417 418 681 0
417 -418 681 0
-417 -418 -681 0
419 420 -682 0
-419 420 682 0
419 -420 682 0
-419 -420 -682 0
421 422 -683 0
-421 422 683 0
421 -422 683 0
-421 -422 -683 0
423 424 -684 0
-423 424 684 0
423 -424 684 0
-423 -424 -684 0
425 426 -685 0
-425 426 685 0
425 -426 685 0
-425 -426 -685 0
427 428 -686 0
-427 428 686 0
427 -428 686 0
-427 -428 -686 0
429 430 -687 0
-429 430 687 0
429 -430 687 0
-429 -430 -687 0
431 432 -688 0
-431 432 688 0
431 -432 688 0
-431 -432 -688 0
433 434 -689 0
-433 434 689 0
433 -434 689 0
-433 -434 -689 0
435 436 -690 0
-435 436 690 0
435 -436 690 0
-435 -436 -690 0
437 438 -691 0
-437 438 691 0
437 -438 691 0
-437 -438 -691 0
439 440 -692 0
-439 440 692 0
439 -440 692 0
-439 -440 -692 0
441 442 -693 0
-441 442 693 0
441 -442 693 0
-441 -442 -693 0
443 444 -694 0
-443 444 694 0
443 -444 694 0
-443 -444 -694 0
445 446 -695 0
-445 446 695 0
445 -446 695 0
-445 -446 -695 0
447 448 -696 0
-447 448 696 0
447 -448 696 0
-447 -448 -696 0
449 450 -697 0
-449 450 697 0
449 -450 697 0
-449 -450 -697 0
451 452 -698 0
-451 452 698 0
451 -452 698 0
-451 -452 -698 0
453 454 -699 0
-453 454 699 0
453 -454 699 0
-453 -454 -699 0
455 456 -700 0
-455 456 700 0
455 -456 700 0
-455 -456 -700 0
457 458 -701 0
-457 458 701 0
457 -458 701 0
-457 -458 -701 0
459 460 -702 0
-459 460 702 0
459 -460 702 0
-459 -460 -702 0
461 462 -703 0
-461 462 703 0
461 -462 703 0
-461 -462 -703 0
463 464 -704 0
-463 464 704 0
463 -464 704 0
-463 -464 -704 0
465 466 -705 0
-465 466 705 0
465 -466 705 0
-465 -466 -705 0
467 468 -706 0
-467 468 706 0
467 -468 706 0
-467 -468 -706 0
473 474 -707 0
-473 474 707 0
473 -474 707 0
-473 -474 -707 0
475 476 -708 0
-475 476 708 0
475 -476 708 0
-475 -476 -708 0
477 478 -709 0
-477 478 709 0
477 -478 709 0
-477 -478 -709 0
479 480 -710 0
-479 480 710 0
479 -480 710 0
-479 -480 -710 0
481 482 -711 0
-481 482 711 0
481 -482 711 0
-481 -482 -711 0
483 484 -712 0
-483 484 712 0
483 -484 712 0
-483 -484 -712 0
485 486 -713 0
-485 486 713 0
485 -486 713 0
-485 -486 -713 0
487 488 -714 0
-487 488 714 0
487 -488 714 0
-487 -488 -714 0
489 490 -715 0
-489 490 715 0
489 -490 715 0
-489 -490 -715 0
491 492 -716 0
-491 492 716 0
491 -492 716 0
-491 -492 -716 0
493 494 -717 0
-493 494 717 0
493 -494 717 0
-493 -494 -717 0
495 496 -718 0
-495 496 718 0
495 -496 718 0
-495 -496 -718 0
497 498 -719 0
-497 498 719 0
497 -498 719 0
-497 -498 -719 0
499 500 -720 0
-499 500 720 0
499 -500 720 0
-499 -500 -720 0
501 502 -721 0
-501 502 721 0
501 -502 721 0
-501 -502 -721 0
503 504 -722 0
-503 504 722 0
503 -504 722 0
-503 -504 -722 0
505 506 -723 0
-505 506 723 0
505 -506 723 0
-505 -506 -723 0
507 508 -724 0
-507 508 724 0
507 -508 724 0
-507 -508 -724 0
509 510 -725 0
-509 510 725 0
509 -510 725 0
-509 -510 -725 0
511 512 -726 0
-511 512 726 0
511 -512 726 0
-511 -512 -726 0
513 514 -727 0
-513 514 727 0
513 -514 727 0
-513 -514 -727 0
515 516 -728 0
-515 516 728 0
515 -516 728 0
-515 -516 -728 0
517 518 -729 0
-517 518 729 0
517 -518 729 0
-517 -518 -729 0
519 520 -730 0
-519 520 730 0
519 -520 730 0
-519 -520 -730 0
521 522 -731 0
-521 522 731 0
521 -522 731 0
-521 -522 -731 0
523 524 -732 0
-523 524 732 0
523 -524 732 0
-523 -524 -732 0
525 526 -733 0
-525 526 733 0
525 -526 733 0
-525 -526 -733 0
527 528 -734 0
-527 528 734 0
527 -528 734 0
-527 -528 -734 0
529 530 -735 0
-529 530 735 0
529 -530 735 0
-529 -530 -735 0
531 532 -736 0
-531 532 736 0
531 -532 736 0
-531 -532 -736 0
533 534 -737 0
-533 534 737 0
533 -534 737 0
-533 -534 -737 0
535 536 -738 0
-535 536 738 0
535 -536 738 0
-535 -536 -738 0
537 538 -739 0
-537 538 739 0
537 -538 739 0
-537 -538 -739 0
539 540 -740 0
-539 540 740 0
539 -540 740 0
-539 -540 -740 0
541 542 -741 0
-541 542 741 0
541 -542 741 0
-541 -542 -741 0
543 544 -742 0
-543 544 742 0
543 -544 742 0
-543 -544 -742 0
545 546 -743 0
-545 546 743 0
545 -546 743 0
-545 -546 -743 0
547 548 -744 0
-547 548 744 0
547 -548 744 0
-547 -548 -744 0
549 550 -745 0
-549 550 745 0
549 -550 745 0
-549 -550 -745 0
551 552 -746 0
-551 552 746 0
551 -552 746 0
-551 -552 -746 0
553 554 -747 0
-553 554 747 0
553 -554 747 0
-553 -554 -747 0
555 556 -748 0
-555 556 748 0
555 -556 748 0
-555 -556 -748 0
557 558 -749 0
-557 558 749 0
557 -558 749 0
-557 -558 -749 0
559 560 -750 0
-559 560 750 0
559 -560 750 0
-559 -560 -750 0
561 562 -751 0
-561 562 751 0
561 -562 751 0
-561 -562 -751 0
563 564 -752 0
-563 564 752 0
563 -564 752 0
-563 -564 -752 0
565 566 -753 0
-565 566 753 0
565 -566 753 0
-565 -566 -753 0
567 568 -754 0
-567 568 754 0
567 -568 754 0
-567 -568 -754 0
569 570 -755 0
-569 570 755 0
569 -570 755 0
-569 -570 -755 0
571 572 -756 0
-571 572 756 0
571 -572 756 0
-571 -572 -756 0
573 574 -757 0
-573 574 757 0
573 -574 757 0
-573 -574 -757 0
575 576 -758 0
-575 576 758 0
575 -576 758 0
-575 -576 -758 0
577 578 -759 0
-577 578 759 0
577 -578 759 0
-577 -578 -759 0
579 580 -760 0
-579 580 760 0
579 -580 760 0
-579 -580 -760 0
581 582 -761 0
-581 582 761 0
581 -582 761 0
-581 -582 -761 0
583 584 -762 0
-583 584 762 0
583 -584 762 0
-583 -584 -762 0
585 586 -763 0
-585 586 763 0
585 -586 763 0
-585 -586 -763 0
587 588 -764 0
-587 588 764 0
587 -588 764 0
-587 -588 -764 0
589 590 -765 0
-589 590 765 0
589 -590 765 0
-589 -590 -765 0
591 592 -766 0
-591 592 766 0
591 -592 766 0
-591 -592 -766 0
593 594 -767 0
-593 594 767 0
593 -594 767 0
-593 -594 -767 0
595 596 -768 0
-595 596 768 0
595 -596 768 0
-595 -596 -768 0
597 598 -769 0
-597 598 769 0
597 -598 769 0
-597 -598 -769 0
599 600 -770 0
-599 600 770 0
599 -600 770 0
-599 -600 -770 0
601 602 -771 0
-601 602 771 0
601 -602 771 0
-601 -602 -771 0
603 604 -772 0
-603 604 772 0
603 -604 772 0
-603 -604 -772 0
605 606 -773 0
-605 606 773 0
605 -606 773 0
-605 -606 -773 0
607 608 -774 0
-607 608 774 0
607 -608 774 0
-607 -608 -774 0
609 610 -775 0
-609 610 775 0
609 -610 775 0
-609 -610 -775 0
611 612 -776 0
-611 612 776 0
611 -612 776 0
-611 -612 -776 0
613 614 -777 0
-613 614 777 0
613 -614 777 0
-613 -614 -777 0
615 616 -778 0
-615 616 778 0
615 -616 778 0
-615 -616 -778 0
617 618 -779 0
-617 618 779 0
617 -618 779 0
-617 -618 -779 0
619 620 -780 0
-619 620 780 0
619 -620 780 0
-619 -620 -780 0
621 622 -781 0
-621 622 781 0
621 -622 781 0
-621 -622 -781 0
623 624 -782 0
-623 624 782 0
623 -624 782 0
-623 -624 -782 0
625 626 -783 0
-625 626 783 0
625 -626 783 0
-625 -626 -783 0
627 628 -784 0
-627 628 784 0
627 -628 784 0
-627 -628 -784 0
629 630 -785 0
-629 630 785 0
629 -630 785 0
-629 -630 -785 0
631 632 -786 0
-631 632 786 0
631 -632 786 0
-631 -632 -786 0
633 634 -787 0
-633 634 787 0
633 -634 787 0
-633 -634 -787 0
635 636 -788 0
-635 636 788 0
635 -636 788 0
-635 -636 -788 0
637 638 -789 0
-637 638 789 0
637 -638 789 0
-637 -638 -789 0
639 640 -790 0
-639 640 790 0
639 -640 790 0
-639 -640 -790 0
641 642 -791 0
-641 642 791 0
641 -642 791 0
-641 -642 -791 0
643 644 -792 0
-643 644 792 0
643 -644 792 0
-643 -644 -792 0
645 646 -793 0
-645 646 793 0
645 -646 793 0
-645 -646 -793 0
647 648 -794 0
-647 648 794 0
647 -648 794 0
-647 -648 -794 0
649 650 -795 0
-649 650 795 0
649 -650 795 0
-649 -650 -795 0
651 652 -796 0
-651 652 796 0
651 -652 796 0
-651 -652 -796 0
653 654 -797 0
-653 654 797 0
653 -654 797 0
-653 -654 -797 0
655 656 -798 0
-655 656 798 0
655 -656 798 0
-655 -656 -798 0
657 658 -799 0
-657 658 799 0
657 -658 799 0
-657 -658 -799 0
659 660 -800 0
-659 660 800 0
659 -660 800 0
-659 -660 -800 0
661 662 -801 0
-661 662 801 0
661 -662 801 0
-661 -662 -801 0
663 664 -802 0
-663 664 802 0
663 -664 802 0
-663 -664 -802 0
665 666 -803 0
-665 666 803 0
665 -666 803 0
-665 -666 -803 0
667 668 -804 0
-667 668 804 0
667 -668 804 0
-667 -668 -804 0
669 670 -805 0
-669 670 805 0
669 -670 805 0
-669 -670 -805 0
671 672 -806 0
-671 672 806 0
671 -672 806 0
-671 -672 -806 0
673 674 -807 0
-673 674 807 0
673 -674 807 0
-673 -674 -807 0
675 676 -808 0
-675 676 808 0
675 -676 808 0
-675 -676 -808 0
677 678 -809 0
-677 678 809 0
677 -678 809 0
-677 -678 -809 0
679 680 -810 0
-679 680 810 0
679 -680 810 0
-679 -680 -810 0
681 682 -811 0
-681 682 811 0
681 -682 811 0
-681 -682 -811 0
683 684 -812 0
-683 684 812 0
683 -684 812 0
-683 -684 -812 0
685 686 -813 0
-685 686 813 0
685 -686 813 0
-685 -686 -813 0
687 688 -814 0
-687 688 814 0
687 -688 814 0
-687 -688 -814 0
689 690 -815 0
-689 690 815 0
689 -690 815 0
-689 -690 -815 0
691 692 -816 0
-691 692 816 0
691 -692 816 0
-691 -692 -816 0
693 694 -817 0
-693 694 817 0
693 -694 817 0
-693 -694 -817 0
695 696 -818 0
-695 696 818 0
695 -696 818 0
-695 -696 -818 0
697 698 -819 0
-697 698 819 0
697 -698 819 0
-697 -698 -819 0
699 700 -820 0
-699 700 820 0
699 -700 820 0
-699 -700 -820 0
701 702 -821 0
-701 702 821 0
701 -702 821 0
-701 -702 -821 0
703 704 -822 0
-703 704 822 0
703 -704 822 0
-703 -704 -822 0
705 706 -823 0
-705 706 823 0
705 -706 823 0
-705 -706 -823 0
707 708 -824 0
-707 708 824 0
707 -708 824 0
-707 -708 -824 0
709 710 -825 0
-709 710 825 0
709 -710 825 0
-709 -710 -825 0
711 712 -826 0
-711 712 826 0
711 -712 826 0
-711 -712 -826 0
713 714 -827 0
-713 714 827 0
713 -714 827 0
-713 -714 -827 0
715 716 -828 0
-715 716 828 0
715 -716 828 0
-715 -716 -828 0
717 718 -829 0
-717 718 829 0
717 -718 829 0
-717 -718 -829 0
719 720 -830 0
-719 720 830 0
719 -720 830 0
-719 -720 -830 0
721 722 -831 0
-721 722 831 0
721 -722 831 0
-721 -722 -831 0
723 724 -832 0
-723 724 832 0
723 -724 832 0
-723 -724 -832 0
725 726 -833 0
-725 726 833 0
725 -726 833 0
-725 -726 -833 0
727 728 -834 0
-727 728 834 0
727 -728 834 0
-727 -728 -834 0
729 730 -835 0
-729 730 835 0
729 -730 835 0
-729 -730 -835 0
731 732 -836 0
-731 732 836 0
731 -732 836 0
-731 -732 -836 0
733 734 -837 0
-733 734 837 0
733 -734 837 0
-733 -734 -837 0
735 736 -838 0
-735 736 838 0
735 -736 838 0
-735 -736 -838 0
737 738 -839 0
-737 738 839 0
737 -738 839 0
-737 -738 -839 0
739 740 -840 0
-739 740 840 0
739 -740 840 0
-739 -740 -840 0
741 742 -841 0
-741 742 841 0
741 -742 841 0
-741 -742 -841 0
743 744 -842 0
-743 744 842 0
743 -744 842 0
-743 -744 -842 0
745 746 -843 0
-745 746 843 0
745 -746 843 0
-745 -746 -843 0
747 748 -844 0
-747 748 844 0
747 -748 844 0
-747 -748 -844 0
749 750 -845 0
-749 750 845 0
749 -750 845 0
-749 -750 -845 0
751 752 -846 0
-751 752 846 0
751 -752 846 0
-751 -752 -846 0
753 754 -847 0
-753 754 847 0
753 -754 847 0
-753 -754 -847 0
755 756 -848 0
-755 756 848 0
755 -756 848 0
-755 -756 -848 0
757 758 -849 0
-757 758 849 0
757 -758 849 0
-757 -758 -849 0
759 760 -850 0
-759 760 850 0
759 -760 850 0
-759 -760 -850 0
761 762 -851 0
-761 762 851 0
761 -762 851 0
-761 -762 -851 0
763 764 -852 0
-763 764 852 0
763 -764 852 0
-763 -764 -852 0
765 766 -853 0
-765 766 853 0
765 -766 853 0
-765 -766 -853 0
767 768 -854 0
-767 768 854 0
767 -768 854 0
-767 -768 -854 0
769 770 -855 0
-769 770 855 0
769 -770 855 0
-769 -770 -855 0
771 772 -856 0
-771 772 856 0
771 -772 856 0
-771 -772 -856 0
773 774 -857 0
-773 774 857 0
773 -774 857 0
-773 -774 -857 0
775 776 -858 0
-775 776 858 0
775 -776 858 0
-775 -776 -858 0
777 778 -859 0
-777 778 859 0
777 -778 859 0
-777 -778 -859 0
779 780 -860 0
-779 780 860 0
779 -780 860 0
-779 -780 -860 0
781 782 -861 0
-781 782 861 0
781 -782 861 0
-781 -782 -861 0
783 784 -862 0
-783 784 862 0
783 -784 862 0
-783 -784 -862 0
785 786 -863 0
-785 786 863 0
785 -786 863 0
-785 -786 -863 0
787 788 -864 0
-787 788 864 0
787 -788 864 0
-787 -788 -864 0
789 790 -865 0
-789 790 865 0
789 -790 865 0
-789 -790 -865 0
791 792 -866 0
-791 792 866 0
791 -792 866 0
-791 -792 -866 0
793 794 -867 0
-793 794 867 0
793 -794 867 0
-793 -794 -867 0
795 796 -868 0
-795 796 868 0
795 -796 868 0
-795 -796 -868 0
797 798 -869 0
-797 798 869 0
797 -798 869 0
-797 -798 -869 0
799 800 -870 0
-799 800 870 0
799 -800 870 0
-799 -800 -870 0
801 802 -871 0
-801 802 871 0
801 -802 871 0
-801 -802 -871 0
803 804 -872 0
-803 804 872 0
803 -804 872 0
-803 -804 -872 0
805 806 -873 0
-805 806 873 0
805 -806 873 0
-805 -806 -873 0
807 808 -874 0
-807 808 874 0
807 -808 874 0
-807 -808 -874 0
809 810 -875 0
-809 810 875 0
809 -810 875 0
-809 -810 -875 0
811 812 -876 0
-811 812 876 0
811 -812 876 0
-811 -812 -876 0
813 814 -877 0
-813 814 877 0
813 -814 877 0
-813 -814 -877 0
815 816 -878 0
-815 816 878 0
815 -816 878 0
-815 -816 -878 0
817 818 -879 0
-817 818 879 0
817 -818 879 0
-817 -818 -879 0
819 820 -880 0
-819 820 880 0
819 -820 880 0
-819 -820 -880 0
821 822 -881 0
-821 822 881 0
821 -822 881 0
-821 -822 -881 0
823 469 -882 0
-823 469 882 0
823 -469 882 0
-823 -469 -882 0
824 825 -883 0
-824 825 883 0
824 -825 883 0
-824 -825 -883 0
826 827 -884 0
-826 827 884 0
826 -827 884 0
-826 -827 -884 0
828 829 -885 0
-828 829 885 0
828 -829 885 0
-828 -829 -885 0
830 831 -886 0
-830 831 886 0
830 -831 886 0
-830 -831 -886 0
832 833 -887 0
-832 833 887 0
832 -833 887 0
-832 -833 -887 0
834 835 -888 0
-834 835 888 0
834 -835 888 0
-834 -835 -888 0
836 837 -889 0
-836 837 889 0
836 -837 889 0
-836 -837 -889 0
838 839 -890 0
-838 839 890 0
838 -839 890 0
-838 -839 -890 0
840 841 -891 0
-840 841 891 0
840 -841 891 0
-840 -841 -891 0
842 843 -892 0
-842 843 892 0
842 -843 892 0
-842 -843 -892 0
844 845 -893 0
-844 845 893 0
844 -845 893 0
-844 -845 -893 0
846 847 -894 0
-846 847 894 0
846 -847 894 0
-846 -847 -894 0
848 849 -895 0
-848 849 895 0
848 -849 895 0
-848 -849 -895 0
850 851 -896 0
-850 851 896 0
850 -851 896 0
-850 -851 -896 0
852 853 -897 0
-852 853 897 0
852 -853 897 0
-852 -853 -897 0
854 855 -898 0
-854 855 898 0
854 -855 898 0
-854 -855 -898 0
856 857 -899 0
-856 857 899 0
856 -857 899 0
-856 -857 -899 0
858 859 -900 0
-858 859 900 0
858 -859 900 0
-858 -859 -900 0
860 861 -901 0
-860 861 901 0
860 -861 901 0
-860 -861 -901 0
862 863 -902 0
-862 863 902 0
862 -863 902 0
-862 -863 -902 0
864 865 -903 0
-864 865 903 0
864 -865 903 0
-864 -865 -903 0
866 867 -904 0
-866 867 904 0
866 -867 904 0
-866 -867 -904 0
868 869 -905 0
-868 869 905 0
868 -869 905 0
-868 -869 -905 0
870 871 -906 0
-870 871 906 0
870 -871 906 0
-870 -871 -906 0
872 873 -907 0
-872 873 907 0
872 -873 907 0
-872 -873 -907 0
874 875 -908 0
-874 875 908 0
874 -875 908 0
-874 -875 -908 0
876 877 -909 0
-876 877 909 0
876 -877 909 0
-876 -877 -909 0
878 879 -910 0
-878 879 910 0
878 -879 910 0
-878 -879 -910 0
880 881 -911 0
-880 881 911 0
880 -881 911 0
-880 -881 -911 0
883 884 -912 0
-883 884 912 0
883 -884 912 0
-883 -884 -912 0
885 886 -913 0
-885 886 913 0
885 -886 913 0
-885 -886 -913 0
887 888 -914 0
-887 888 914 0
887 -888 914 0
-887 -888 -914 0
889 890 -915 0
-889 890 915 0
889 -890 915 0
-889 -890 -915 0
891 892 -916 0
-891 892 916 0
891 -892 916 0
-891 -892 -916 0
893 894 -917 0
-893 894 917 0
893 -894 917 0
-893 -894 -917 0
895 896 -918 0
-895 896 918 0
895 -896 918 0
-895 -896 -918 0
897 898 -919 0
-897 898 919 0
897 -898 919 0
-897 -898 -919 0
899 900 -920 0
-899 900 920 0
899 -900 920 0
-899 -900 -920 0
901 902 -921 0
-901 902 921 0
901 -902 921 0
-901 -902 -921 0
903 904 -922 0
-903 904 922 0
903 -904 922 0
-903 -904 -922 0
905 906 -923 0
-905 906 923 0
905 -906 923 0
-905 -906 -923 0
907 908 -924 0
-907 908 924 0
907 -908 924 0
-907 -908 -924 0
909 910 -925 0
-909 910 925 0
909 -910 925 0
-909 -910 -925 0
911 882 -926 0
-911 882 926 0
911 -882 926 0
-911 -882 -926 0
912 913 -927 0
-912 913 927 0
912 -913 927 0
-912 -913 -927 0
914 915 -928 0
-914 915 928 0
914 -915 928 0
-914 -915 -928 0
916 917 -929 0
-916 917 929 0
916 -917 929 0
-916 -917 -929 0
918 919 -930 0
-918 919 930 0
918 -919 930 0
-918 -919 -930 0
920 921 -931 0
-920 921 931 0
920 -921 931 0
-920 -921 -931 0
922 923 -932 0
-922 923 932 0
922 -923 932 0
-922 -923 -932 0
924 925 -933 0
-924 925 933 0
924 -925 933 0
-924 -925 -933 0
927 928 -934 0
-927 928 934 0
927 -928 934 0
-927 -928 -934 0
929 930 -935 0
-929 930 935 0
929 -930 935 0
-929 -930 -935 0
931 932 -936 0
-931 932 936 0
931 -932 936 0
-931 -932 -936 0
933 926 -937 0
-933 926 937 0
933 -926 937 0
-933 -926 -937 0
934 935 -938 0
-934 935 938 0
934 -935 938 0
-934 -935 -938 0
936 937 -939 0
-936 937 939 0
936 -937 939 0
-936 -937 -939 0
938 939 -470 0
-938 939 470 0
938 -939 470 0
-938 -939 -470 0
